3 32 1 10
14 20 3 18 6 8 14 4 20 7 17 15 19 5 16 15 20 4 5 16 3 1 5 12 12 6 8 2 1 17 3 3 
2.25 5.69 2.68 0.82 2.54 5.25 4.52 7.34 5.24 0.52 6.76 1.61 3.04 6.18 7.5 4.29 3.05 7.93 3.39 2.91 3.31 3.51 6.12 4.01 5.9 1.06 3.38 2.63 2.74 4.16 0.66 2.8 
4 4 4 4 4 4 4 4 4 4 4 4 4 4 4 4 4 4 4 4 4 4 4 4 4 4 4 4 4 4 4 4 
2.03 7.41 0.6 2 2.66 4.09 1.52 6.56 5.17 5.9 5.97 2.97 3.91 4.89 3.86 5.76 2.76 2.77 7.67 0.95 7.95 3.84 5.14 4.14 6.77 2.65 3.01 7.59 4.7 6.44 2.95 6.74 
1 1 1 1 1 1 1 1 1 1 1 1 1 1 1 1 1 1 1 1 1 1 1 1 1 1 1 1 1 1 1 1 
1 1 1 1 1 1 1 1 1 1 1 1 1 1 1 1 1 1 1 1 1 1 1 1 1 1 1 1 1 1 1 1 
1 1 1 1 1 1 1 1 1 1 1 1 1 1 1 1 1 1 1 1 1 1 1 1 1 1 1 1 1 1 1 1 
0.01 0.01 0.01 0.01 0.01 0.01 0.01 0.01 0.01 0.01 0.01 0.01 0.01 0.01 0.01 0.01 0.01 0.01 0.01 0.01 0.01 0.01 0.01 0.01 0.01 0.01 0.01 0.01 0.01 0.01 0.01 0.01 
0.02 0.02 0.02 0.02 0.02 0.02 0.02 0.02 0.02 0.02 0.02 0.02 0.02 0.02 0.02 0.02 0.02 0.02 0.02 0.02 0.02 0.02 0.02 0.02 0.02 0.02 0.02 0.02 0.02 0.02 0.02 0.02 
1 1 1 1 1 1 1 1 1 1 1 1 1 1 1 1 1 1 1 1 1 1 1 1 1 1 1 1 1 1 1 1 
